Optimal - objective value 24929667.86904385
      0 C0000000               1                      -0
      1 C0000001               1                      -0
      2 C0000002               1                      -0
      3 C0000003               0                      -0
      4 C0000004               0                      -0
      5 C0000005               0                      -0
      6 C0000006               0                      -0
      7 C0000007               0                      -0
      8 C0000008               0                      -0
      9 C0000009               0                      -0
     10 C0000010               0                      -0
     11 C0000011               0                      -0
     12 C0000012               0                      -0
     13 C0000013               0                      -0
     14 C0000014               0                      -0
     15 C0000015               0                      -0
      0 X0000000               1                24929667
      1 X0000001               1              0.86903386
      2 X0000002               0                24929667
      3 X0000003               0              0.86903386
      4 X0000004               0                24929667
      5 X0000005               0              0.86903386
      6 X0000006               0                24929667
      7 X0000007               0              0.86903386
      8 X0000008               0                24929667
      9 X0000009               0              0.86903386
